c FILE: v30_d10.dat

p edge 30 44
e 1 2
e 2 3
e 2 24
e 2 25
e 2 30
e 3 4
e 3 6
e 3 12
e 4 5
e 5 6
e 6 7
e 7 8
e 8 9
e 8 12
e 8 21
e 9 10
e 10 11
e 10 28
e 11 12
e 11 21
e 11 29
e 12 13
e 12 28
e 13 14
e 13 22
e 13 24
e 14 15
e 15 16
e 16 17
e 17 18
e 18 19
e 19 20
e 20 21
e 21 22
e 22 23
e 23 24
e 23 26
e 24 25
e 25 26
e 25 27
e 26 27
e 27 28
e 28 29
e 29 30
